SCIP version 8.0.0 [precision: 8 byte] [memory: block] [mode: optimized] [LP solver: SoPlex 6.0.0] [GitHash: a740f0891e]
Copyright (C) 2002-2021 Konrad-Zuse-Zentrum fuer Informationstechnik Berlin (ZIB)

read problem </home/danilo/cbc-test-set/fiber.mps.gz> ...

original problem has 1298 variables (1254 bin, 0 int, 0 impl, 44 cont) and 363 constraints
solve problem ...

presolving:
   Deactivated symmetry handling methods, since SCIP was built without symmetry detector (SYM=none).
presolving (0 rounds: 0 fast, 0 medium, 0 exhaustive):
 0 deleted vars, 0 deleted constraints, 0 added constraints, 0 tightened bounds, 0 added holes, 0 changed sides, 0 changed coefficients
 0 implications, 0 cliques
presolved problem has 1298 variables (1254 bin, 0 int, 0 impl, 44 cont) and 363 constraints
    363 constraints of type <linear>
transformed objective value is always integral (scale: 0.01)
Presolving Time: 0.00

 time | node  | left  |LP iter|LP it/n|mem/heur|mdpt |vars |cons |rows |cuts |sepa|confs|strbr|  dualbound   | primalbound  |  gap   | compl. 
  0.0s|     1 |     0 |   277 |     - |  6876k |   0 |1298 | 348 | 348 |   0 |  0 |   0 |   0 | 1.560825e+05 |      --      |    Inf | unknown
  0.0s|     1 |     0 |   339 |     - |  7127k |   0 |1298 | 348 | 363 |  15 |  1 |   0 |   0 | 2.864486e+05 |      --      |    Inf | unknown
  0.0s|     1 |     0 |   404 |     - |  7127k |   0 |1298 | 348 | 376 |  28 |  2 |   0 |   0 | 3.443362e+05 |      --      |    Inf | unknown
  0.0s|     1 |     0 |   438 |     - |  7127k |   0 |1298 | 348 | 386 |  38 |  3 |   0 |   0 | 3.519954e+05 |      --      |    Inf | unknown
  0.0s|     1 |     0 |   482 |     - |  7127k |   0 |1298 | 348 | 396 |  48 |  4 |   0 |   0 | 3.681028e+05 |      --      |    Inf | unknown
  0.0s|     1 |     0 |   527 |     - |  7143k |   0 |1298 | 348 | 406 |  58 |  5 |   0 |   0 | 3.741306e+05 |      --      |    Inf | unknown
  0.0s|     1 |     0 |   575 |     - |  7144k |   0 |1298 | 348 | 415 |  67 |  6 |   0 |   0 | 3.779125e+05 |      --      |    Inf | unknown
  0.0s|     1 |     0 |   593 |     - |  7174k |   0 |1298 | 348 | 423 |  75 |  7 |   0 |   0 | 3.801299e+05 |      --      |    Inf | unknown
  0.0s|     1 |     0 |   616 |     - |  7174k |   0 |1298 | 348 | 428 |  80 |  8 |   0 |   0 | 3.811867e+05 |      --      |    Inf | unknown
  0.0s|     1 |     0 |   630 |     - |  7188k |   0 |1298 | 348 | 431 |  83 |  9 |   0 |   0 | 3.818901e+05 |      --      |    Inf | unknown
  0.0s|     1 |     0 |   633 |     - |  7188k |   0 |1298 | 348 | 432 |  84 | 10 |   0 |   0 | 3.819811e+05 |      --      |    Inf | unknown
* 0.1s|     1 |     0 |   633 |     - |strongbr|   0 |1298 | 348 | 432 |  84 | 11 |   0 |  25 | 3.819811e+05 | 4.462321e+05 |  16.82%| unknown
  0.1s|     1 |     0 |   639 |     - |  7444k |   0 |1298 | 347 | 432 |  84 | 11 |   0 |  38 | 3.848208e+05 | 4.462321e+05 |  15.96%| unknown
  0.1s|     1 |     0 |   639 |     - |  7444k |   0 |1298 | 347 | 432 |  84 | 11 |   0 |  38 | 3.848208e+05 | 4.462321e+05 |  15.96%| unknown
  0.1s|     1 |     0 |   639 |     - |  7444k |   0 |1298 | 325 | 432 |  84 | 12 |   0 |  38 | 3.848208e+05 | 4.462321e+05 |  15.96%| unknown
 time | node  | left  |LP iter|LP it/n|mem/heur|mdpt |vars |cons |rows |cuts |sepa|confs|strbr|  dualbound   | primalbound  |  gap   | compl. 
* 0.1s|     1 |     0 |   639 |     - |strongbr|   0 |1298 | 325 | 432 |  84 | 13 |   0 |  38 | 3.848208e+05 | 4.079416e+05 |   6.01%| unknown
  0.2s|     1 |     0 |   645 |     - |  7544k |   0 |1298 | 325 | 432 |  84 | 13 |   0 |  48 | 3.848208e+05 | 4.079416e+05 |   6.01%| unknown
  0.2s|     1 |     0 |   645 |     - |  7544k |   0 |1298 | 325 | 424 |  84 | 13 |   0 |  48 | 3.848208e+05 | 4.079416e+05 |   6.01%| unknown
  0.2s|     1 |     0 |   645 |     - |  7544k |   0 |1298 | 300 | 424 |  84 | 14 |   0 |  48 | 3.848208e+05 | 4.079416e+05 |   6.01%| unknown
  0.2s|     1 |     2 |   645 |     - |  7547k |   0 |1298 | 300 | 424 |  84 | 15 |   0 |  49 | 3.848208e+05 | 4.079416e+05 |   6.01%| unknown

SCIP Status        : solving was interrupted [node limit reached]
Solving Time (sec) : 0.17
Solving Nodes      : 1
Primal Bound       : +4.07941580000000e+05 (2 solutions)
Dual Bound         : +3.84820835542328e+05
Gap                : 6.01 %
primal solution:
objective value:                            407941.58
x37                                                 1 	(obj:1113.2)
x113                                                1 	(obj:1465.2)
x120                                                1 	(obj:2178)
x137                                                1 	(obj:1306.8)
x191                                                1 	(obj:1790.8)
x215                                                1 	(obj:1597.2)
x236                                                1 	(obj:3366)
x271                                                1 	(obj:1720.4)
x339                                                1 	(obj:2904)
x347                                                1 	(obj:1790.8)
x373                                                1 	(obj:1790.8)
x387                                                1 	(obj:2032.8)
x422                                                1 	(obj:4338.4)
x425                                                1 	(obj:2767.6)
x442                                                1 	(obj:2692.8)
x503                                                1 	(obj:1628)
x520                                                1 	(obj:1584)
x581                                                1 	(obj:2767.6)
x595                                                1 	(obj:3889.6)
x598                                                1 	(obj:2692.8)
x661                                                1 	(obj:1214.4)
x690                                                1 	(obj:3009.6)
x737                                                1 	(obj:976.8)
x763                                                1 	(obj:976.8)
x777                                                1 	(obj:1108.8)
x780                                                1 	(obj:528)
x814                                                1 	(obj:1214.4)
x827                                                1 	(obj:3379.2)
x861                                                1 	(obj:51559.2)
x1046                                               1 	(obj:107643.36)
x1113                                               1 	(obj:73328.64)
x1123                                               1 	(obj:69463.67)
x1239                                               1 	(obj:48121.91)
x1255                                              10 	(obj:0)
x1256                                              78 	(obj:0)
x1257                                              31 	(obj:0)
x1258                                              14 	(obj:0)
x1259                                             141 	(obj:0)
x1260                                              45 	(obj:0)
x1261                                              62 	(obj:0)
x1262                                               7 	(obj:0)
x1263                                             184 	(obj:0)
x1264                                              90 	(obj:0)
x1266                                              24 	(obj:0)
x1269                                              52 	(obj:0)
x1270                                               6 	(obj:0)
x1272                                              94 	(obj:0)
x1273                                              22 	(obj:0)
x1274                                               7 	(obj:0)
x1275                                               4 	(obj:0)
x1276                                               2 	(obj:0)
x1277                                              66 	(obj:0)
x1278                                               6 	(obj:0)
x1279                                             126 	(obj:0)
x1280                                              60 	(obj:0)
x1281                                              20 	(obj:0)
x1282                                               3 	(obj:0)
x1284                                               2 	(obj:0)
x1285                                              44 	(obj:0)
x1286                                             255 	(obj:0)
x1287                                              10 	(obj:0)
x1288                                               6 	(obj:0)
x1289                                              98 	(obj:0)
x1290                                             106 	(obj:0)
x1291                                              36 	(obj:0)
x1292                                               7 	(obj:0)
x1293                                              32 	(obj:0)
x1294                                              18 	(obj:0)
x1295                                               2 	(obj:0)
x1296                                               6 	(obj:0)
x1297                                              11 	(obj:0)
x1298                                               8 	(obj:0)
Statistics:
SCIP Status        : solving was interrupted [node limit reached]
Total Time         :       0.18
  solving          :       0.17
  presolving       :       0.00 (included in solving)
  reading          :       0.00
  copying          :       0.00 (0 times copied the problem)
Original Problem   :
  Problem name     : fiber
  Variables        : 1298 (1254 binary, 0 integer, 0 implicit integer, 44 continuous)
  Constraints      : 363 initial, 363 maximal
  Objective        : minimize, 1254 non-zeros (abs.min = 290.4, abs.max = 729670)
Presolved Problem  :
  Problem name     : t_fiber
  Variables        : 1298 (1254 binary, 0 integer, 0 implicit integer, 44 continuous)
  Constraints      : 363 initial, 363 maximal
  Objective        : minimize, 1254 non-zeros (abs.min = 29040, abs.max = 7.2967e+07)
  Nonzeros         : 2944 constraint, 0 clique table
Presolvers         :   ExecTime  SetupTime  Calls  FixedVars   AggrVars   ChgTypes  ChgBounds   AddHoles    DelCons    AddCons   ChgSides   ChgCoefs
  boundshift       :       0.00       0.00      0          0          0          0          0          0          0          0          0          0
  convertinttobin  :       0.00       0.00      0          0          0          0          0          0          0          0          0          0
  domcol           :       0.00       0.00      0          0          0          0          0          0          0          0          0          0
  dualagg          :       0.00       0.00      0          0          0          0          0          0          0          0          0          0
  dualcomp         :       0.00       0.00      0          0          0          0          0          0          0          0          0          0
  dualinfer        :       0.00       0.00      0          0          0          0          0          0          0          0          0          0
  dualsparsify     :       0.00       0.00      0          0          0          0          0          0          0          0          0          0
  gateextraction   :       0.00       0.00      0          0          0          0          0          0          0          0          0          0
  implics          :       0.00       0.00      0          0          0          0          0          0          0          0          0          0
  inttobinary      :       0.00       0.00      0          0          0          0          0          0          0          0          0          0
  qpkktref         :       0.00       0.00      0          0          0          0          0          0          0          0          0          0
  redvub           :       0.00       0.00      0          0          0          0          0          0          0          0          0          0
  sparsify         :       0.00       0.00      0          0          0          0          0          0          0          0          0          0
  stuffing         :       0.00       0.00      0          0          0          0          0          0          0          0          0          0
  trivial          :       0.00       0.00      0          0          0          0          0          0          0          0          0          0
  tworowbnd        :       0.00       0.00      0          0          0          0          0          0          0          0          0          0
  dualfix          :       0.00       0.00      0          0          0          0          0          0          0          0          0          0
  genvbounds       :       0.00       0.00      0          0          0          0          0          0          0          0          0          0
  probing          :       0.00       0.00      0          0          0          0          0          0          0          0          0          0
  pseudoobj        :       0.00       0.00      0          0          0          0          0          0          0          0          0          0
  symmetry         :       0.00       0.00      0          0          0          0          0          0          0          0          0          0
  vbounds          :       0.00       0.00      0          0          0          0          0          0          0          0          0          0
  linear           :       0.00       0.00      0          0          0          0          0          0          0          0          0          0
  benders          :       0.00       0.00      0          0          0          0          0          0          0          0          0          0
  components       :       0.00       0.00      0          0          0          0          0          0          0          0          0          0
  root node        :          -          -      -        555          -          -        680          -          -          -          -          -
Constraints        :     Number  MaxNumber  #Separate #Propagate    #EnfoLP    #EnfoRelax  #EnfoPS    #Check   #ResProp    Cutoffs    DomReds       Cuts    Applied      Conss   Children
  benderslp        :          0          0          0          0          3          0          0          4          0          0          0          0          0          0          0
  integral         :          0          0          0          0          3          0          0          4          0          0          2          0          0          0          2
  linear           :        363        363         15        141          0          0          0          2          0          0        319        238         84          0          0
  benders          :          0          0          0          0          0          0          0          3          0          0          0          0          0          0          0
  countsols        :          0          0          0          0          0          0          0          3          0          0          0          0          0          0          0
  components       :          0          0          0          0          0          0          0          0          0          0          0          0          0          0          0
Constraint Timings :  TotalTime  SetupTime   Separate  Propagate     EnfoLP     EnfoPS     EnfoRelax   Check    ResProp    SB-Prop
  benderslp        :       0.00       0.00       0.00       0.00       0.00       0.00       0.00       0.00       0.00       0.00
  integral         :       0.11       0.00       0.00       0.00       0.11       0.00       0.00       0.00       0.00       0.00
  linear           :       0.03       0.00       0.03       0.00       0.00       0.00       0.00       0.00       0.00       0.00
  benders          :       0.00       0.00       0.00       0.00       0.00       0.00       0.00       0.00       0.00       0.00
  countsols        :       0.00       0.00       0.00       0.00       0.00       0.00       0.00       0.00       0.00       0.00
  components       :       0.00       0.00       0.00       0.00       0.00       0.00       0.00       0.00       0.00       0.00
Propagators        : #Propagate   #ResProp    Cutoffs    DomReds
  dualfix          :         12          0          0          0
  genvbounds       :          0          0          0          0
  nlobbt           :          0          0          0          0
  obbt             :          0          0          0          0
  probing          :          0          0          0          0
  pseudoobj        :         34          0          0         14
  redcost          :         20          0          0        345
  rootredcost      :          0          0          0          0
  symmetry         :          0          0          0          0
  vbounds          :          0          0          0          0
Propagator Timings :  TotalTime  SetupTime   Presolve  Propagate    ResProp    SB-Prop
  dualfix          :       0.00       0.00       0.00       0.00       0.00       0.00
  genvbounds       :       0.00       0.00       0.00       0.00       0.00       0.00
  nlobbt           :       0.00       0.00       0.00       0.00       0.00       0.00
  obbt             :       0.00       0.00       0.00       0.00       0.00       0.00
  probing          :       0.00       0.00       0.00       0.00       0.00       0.00
  pseudoobj        :       0.00       0.00       0.00       0.00       0.00       0.00
  redcost          :       0.00       0.00       0.00       0.00       0.00       0.00
  rootredcost      :       0.00       0.00       0.00       0.00       0.00       0.00
  symmetry         :       0.00       0.00       0.00       0.00       0.00       0.00
  vbounds          :       0.00       0.00       0.00       0.00       0.00       0.00
Conflict Analysis  :       Time      Calls    Success    DomReds  Conflicts   Literals    Reconvs ReconvLits   Dualrays   Nonzeros   LP Iters   (pool size: [--,--])
  propagation      :       0.00          0          0          -          0        0.0          0        0.0          -          -          -
  infeasible LP    :       0.00          0          0          -          0        0.0          0        0.0          0        0.0          0
  bound exceed. LP :       0.00          0          0          -          0        0.0          0        0.0          0        0.0          0
  strong branching :       0.00          0          0          -          0        0.0          0        0.0          -          -          0
  pseudo solution  :       0.00          0          0          -          0        0.0          0        0.0          -          -          -
  applied globally :       0.00          -          -          0          0        0.0          -          -          0          -          -
  applied locally  :          -          -          -          0          0        0.0          -          -          0          -          -
Separators         :   ExecTime  SetupTime      Calls    Cutoffs    DomReds       Cuts    Applied      Conss
  cut pool         :       0.00                     0          -          -          0          -          -    (maximal pool size: 0)
  aggregation      :       0.00       0.00          0          0          0          0          0          0
  > cmir           :          -          -          -          -          -          -          0          -
  > flowcover      :          -          -          -          -          -          -          0          -
  > knapsackcover  :          -          -          -          -          -          -          0          -
  cgmip            :       0.00       0.00          0          0          0          0          0          0
  clique           :       0.00       0.00          0          0          0          0          0          0
  closecuts        :       0.00       0.00          0          0          0          0          0          0
  convexproj       :       0.00       0.00          0          0          0          0          0          0
  disjunctive      :       0.00       0.00          0          0          0          0          0          0
  eccuts           :       0.00       0.00          0          0          0          0          0          0
  gauge            :       0.00       0.00          0          0          0          0          0          0
  gmi              :       0.00       0.00          0          0          0          0          0          0
  gomory           :       0.00       0.00          0          0          0          0          0          0
  > gomorymi       :          -          -          -          -          -          -          0          -
  > strongcg       :          -          -          -          -          -          -          0          -
  impliedbounds    :       0.00       0.00          0          0          0          0          0          0
  interminor       :       0.00       0.00          0          0          0          0          0          0
  intobj           :       0.00       0.00          0          0          0          0          0          0
  mcf              :       0.00       0.00          0          0          0          0          0          0
  minor            :       0.00       0.00          0          0          0          0          0          0
  mixing           :       0.00       0.00          0          0          0          0          0          0
  oddcycle         :       0.00       0.00          0          0          0          0          0          0
  rapidlearning    :       0.00       0.00          0          0          0          0          0          0
  rlt              :       0.00       0.00          0          0          0          0          0          0
  zerohalf         :       0.00       0.00          0          0          0          0          0          0
Cutselectors       :   ExecTime  SetupTime
  hybrid           :       0.00       0.00
Pricers            :   ExecTime  SetupTime      Calls       Vars
  problem variables:       0.00          -          0          0
Branching Rules    :   ExecTime  SetupTime   BranchLP  BranchExt   BranchPS    Cutoffs    DomReds       Cuts      Conss   Children
  allfullstrong    :       0.00       0.00          0          0          0          0          0          0          0          0
  cloud            :       0.00       0.00          0          0          0          0          0          0          0          0
  distribution     :       0.00       0.00          0          0          0          0          0          0          0          0
  fullstrong       :       0.00       0.00          0          0          0          0          0          0          0          0
  inference        :       0.00       0.00          0          0          0          0          0          0          0          0
  leastinf         :       0.00       0.00          0          0          0          0          0          0          0          0
  lookahead        :       0.00       0.00          0          0          0          0          0          0          0          0
  mostinf          :       0.00       0.00          0          0          0          0          0          0          0          0
  multaggr         :       0.00       0.00          0          0          0          0          0          0          0          0
  nodereopt        :       0.00       0.00          0          0          0          0          0          0          0          0
  pscost           :       0.00       0.00          0          0          0          0          0          0          0          0
  random           :       0.00       0.00          0          0          0          0          0          0          0          0
  relpscost        :       0.11       0.00          3          0          0          0          2          0          0          2
  vanillafullstrong:       0.00       0.00          0          0          0          0          0          0          0          0
Primal Heuristics  :   ExecTime  SetupTime      Calls      Found       Best
  LP solutions     :       0.00          -          -          0          0
  relax solutions  :       0.00          -          -          0          0
  pseudo solutions :       0.00          -          -          0          0
  strong branching :       0.00          -          -          2          2
  actconsdiving    :       0.00       0.00          0          0          0
  adaptivediving   :       0.00       0.00          0          0          0
  alns             :       0.00       0.00          0          0          0
  bound            :       0.00       0.00          0          0          0
  clique           :       0.00       0.00          0          0          0
  coefdiving       :       0.00       0.00          0          0          0
  completesol      :       0.00       0.00          0          0          0
  conflictdiving   :       0.00       0.00          0          0          0
  crossover        :       0.00       0.00          0          0          0
  dins             :       0.00       0.00          0          0          0
  distributiondivin:       0.00       0.00          0          0          0
  dps              :       0.00       0.00          0          0          0
  dualval          :       0.00       0.00          0          0          0
  farkasdiving     :       0.00       0.00          0          0          0
  feaspump         :       0.00       0.00          0          0          0
  fixandinfer      :       0.00       0.00          0          0          0
  fracdiving       :       0.00       0.00          0          0          0
  gins             :       0.00       0.00          0          0          0
  guideddiving     :       0.00       0.00          0          0          0
  indicator        :       0.00       0.00          0          0          0
  intdiving        :       0.00       0.00          0          0          0
  intshifting      :       0.00       0.00          0          0          0
  linesearchdiving :       0.00       0.00          0          0          0
  localbranching   :       0.00       0.00          0          0          0
  locks            :       0.00       0.00          0          0          0
  lpface           :       0.00       0.00          0          0          0
  mpec             :       0.00       0.00          0          0          0
  multistart       :       0.00       0.00          0          0          0
  mutation         :       0.00       0.00          0          0          0
  nlpdiving        :       0.00       0.00          0          0          0
  objpscostdiving  :       0.00       0.00          0          0          0
  octane           :       0.00       0.00          0          0          0
  ofins            :       0.00       0.00          0          0          0
  oneopt           :       0.00       0.00          0          0          0
  padm             :       0.00       0.00          0          0          0
  proximity        :       0.00       0.00          0          0          0
  pscostdiving     :       0.00       0.00          0          0          0
  randrounding     :       0.00       0.00          0          0          0
  rens             :       0.00       0.00          0          0          0
  reoptsols        :       0.00       0.00          0          0          0
  repair           :       0.00       0.00          0          0          0
  rins             :       0.00       0.00          0          0          0
  rootsoldiving    :       0.00       0.00          0          0          0
  rounding         :       0.00       0.00          0          0          0
  shiftandpropagate:       0.00       0.00          0          0          0
  shifting         :       0.00       0.00          0          0          0
  simplerounding   :       0.00       0.00          0          0          0
  subnlp           :       0.00       0.00          0          0          0
  trivial          :       0.00       0.00          0          0          0
  trivialnegation  :       0.00       0.00          0          0          0
  trustregion      :       0.00       0.00          0          0          0
  trysol           :       0.00       0.00          0          0          0
  twoopt           :       0.00       0.00          0          0          0
  undercover       :       0.00       0.00          0          0          0
  vbounds          :       0.00       0.00          0          0          0
  veclendiving     :       0.00       0.00          0          0          0
  zeroobj          :       0.00       0.00          0          0          0
  zirounding       :       0.00       0.00          0          0          0
  other solutions  :          -          -          -          0          -
Diving (single)    :      Calls      Nodes   LP Iters Backtracks  Conflicts   MinDepth   MaxDepth   AvgDepth  RoundSols  NLeafSols  MinSolDpt  MaxSolDpt  AvgSolDpt
  actconsdiving    :          0          -          -          -          -          -          -          -          -          -          -          -          -
  coefdiving       :          0          -          -          -          -          -          -          -          -          -          -          -          -
  conflictdiving   :          0          -          -          -          -          -          -          -          -          -          -          -          -
  distributiondivin:          0          -          -          -          -          -          -          -          -          -          -          -          -
  farkasdiving     :          0          -          -          -          -          -          -          -          -          -          -          -          -
  fracdiving       :          0          -          -          -          -          -          -          -          -          -          -          -          -
  guideddiving     :          0          -          -          -          -          -          -          -          -          -          -          -          -
  linesearchdiving :          0          -          -          -          -          -          -          -          -          -          -          -          -
  pscostdiving     :          0          -          -          -          -          -          -          -          -          -          -          -          -
  veclendiving     :          0          -          -          -          -          -          -          -          -          -          -          -          -
Diving (adaptive)  :      Calls      Nodes   LP Iters Backtracks  Conflicts   MinDepth   MaxDepth   AvgDepth  RoundSols  NLeafSols  MinSolDpt  MaxSolDpt  AvgSolDpt
  actconsdiving    :          0          -          -          -          -          -          -          -          -          -          -          -          -
  coefdiving       :          0          -          -          -          -          -          -          -          -          -          -          -          -
  conflictdiving   :          0          -          -          -          -          -          -          -          -          -          -          -          -
  distributiondivin:          0          -          -          -          -          -          -          -          -          -          -          -          -
  farkasdiving     :          0          -          -          -          -          -          -          -          -          -          -          -          -
  fracdiving       :          0          -          -          -          -          -          -          -          -          -          -          -          -
  guideddiving     :          0          -          -          -          -          -          -          -          -          -          -          -          -
  linesearchdiving :          0          -          -          -          -          -          -          -          -          -          -          -          -
  pscostdiving     :          0          -          -          -          -          -          -          -          -          -          -          -          -
  veclendiving     :          0          -          -          -          -          -          -          -          -          -          -          -          -
Neighborhoods      :      Calls  SetupTime  SolveTime SolveNodes       Sols       Best       Exp3  EpsGreedy        UCB TgtFixRate  Opt  Inf Node Stal  Sol  Usr Othr Actv
  rens             :          0       0.00       0.00          0          0          0    0.00000   -1.00000    1.00000      0.900    0    0    0    0    0    0    0    1
  rins             :          0       0.00       0.00          0          0          0    0.00000   -1.00000    1.00000      0.900    0    0    0    0    0    0    0    1
  mutation         :          0       0.00       0.00          0          0          0    0.00000   -1.00000    1.00000      0.900    0    0    0    0    0    0    0    1
  localbranching   :          0       0.00       0.00          0          0          0    0.00000   -1.00000    1.00000      0.900    0    0    0    0    0    0    0    1
  crossover        :          0       0.00       0.00          0          0          0    0.00000   -1.00000    1.00000      0.900    0    0    0    0    0    0    0    1
  proximity        :          0       0.00       0.00          0          0          0    0.00000   -1.00000    1.00000      0.900    0    0    0    0    0    0    0    1
  zeroobjective    :          0       0.00       0.00          0          0          0    0.00000   -1.00000    1.00000      0.900    0    0    0    0    0    0    0    1
  dins             :          0       0.00       0.00          0          0          0    0.00000   -1.00000    1.00000      0.900    0    0    0    0    0    0    0    1
  trustregion      :          0       0.00       0.00          0          0          0    0.00000   -1.00000    1.00000      0.900    0    0    0    0    0    0    0    0
LP                 :       Time      Calls Iterations  Iter/call   Iter/sec  Time-0-It Calls-0-It    ItLimit
  primal LP        :       0.00          0          0       0.00          -       0.00          0
  dual LP          :       0.02         17        645      49.62   34228.40       0.00          4
  lex dual LP      :       0.00          0          0       0.00          -
  barrier LP       :       0.00          0          0       0.00          -       0.00          0
  resolve instable :       0.00          0          0       0.00          -
  diving/probing LP:       0.00          0          0       0.00          -
  strong branching :       0.09         49       1854      37.84   20324.49          -          -          0
    (at root node) :          -         49       1854      37.84          -
  conflict analysis:       0.00          0          0       0.00          -
B&B Tree           :
  number of runs   :          1
  nodes            :          1 (1 internal, 0 leaves)
  feasible leaves  :          0
  infeas. leaves   :          0
  objective leaves :          0
  nodes (total)    :          1 (1 internal, 0 leaves)
  nodes left       :          2
  max depth        :          0
  max depth (total):          0
  backtracks       :          0 (0.0%)
  early backtracks :          0 (0.0%)
  nodes exc. ref.  :          0 (0.0%)
  delayed cutoffs  :          0
  repropagations   :          0 (0 domain reductions, 0 cutoffs)
  avg switch length:       1.00
  switching time   :       0.00
Estim. Tree Size   :         -1
Estimation Tree    : 3 nodes (1 visited, 1 internal, 0 leaves, 2 open), weight: 0.0000 completed 0.0000
Estimations        :      estim      value      trend resolution     smooth
  wbe              :         -1          -          -          -          -
  tree-profile     :         -1          -          -          -          -
  gap              :         -1    0.94332                     1           
  tree-weight      :         -1    0.00000                     1           
  leaf-frequency   :         -1   -0.50000                     1           
  ssg              :         -1    1.00000                     1           
  open-nodes       :         -1    2.00000                     1           
Root Node          :
  First LP value   : +1.56082517592593e+05
  First LP Iters   :        277 (47791.58 Iter/sec)
  First LP Time    :       0.01
  Final Dual Bound : +3.84820835542328e+05
  Final Root Iters :        645
  Root LP Estimate : +4.15569915603178e+05
Solution           :
  Solutions found  :          2 (2 improvements)
  First Solution   : +4.46232140000000e+05   (in run 1, after 1 nodes, 0.11 seconds, depth 2, found by <relaxation>)
  Gap First Sol.   :      16.82 %
  Gap Last Sol.    :       6.01 %
  Primal Bound     : +4.07941580000000e+05   (in run 1, after 1 nodes, 0.15 seconds, depth 2, found by <relaxation>)
  Dual Bound       : +3.84820835542328e+05
  Gap              :       6.01 %
Integrals          :      Total       Avg%
  primal-dual      :      11.57      67.24
  primal-ref       :          -          - (not evaluated)
  dual-ref         :          -          - (not evaluated)
